33946.0
10, 18, 30, 121, 215, 216, 347, 379, 385, 459, 524, 564, 667, 732, 784, 824, 830, 832, 853, 909, 1117, 1143, 1165, 1186, 1248, 1322, 1433, 1457, 1472, 1584, 1596, 1617, 1644, 1654, 1672, 1716, 1805, 1873, 1879, 1890, 1904, 1988